(set-info :smt-lib-version 2.6)
(set-logic QF_FP)
(set-info :source |Random FP created by PyMPF|)
(set-info :license |https://www.gnu.org/licenses/gpl-3.0.html|)
(set-info :category random)
(set-info :status unsat)
(declare-const x Float32)
(assert (= x ((_ to_fp 8 24) #x7F7FFFFF)))
;; x should be Float32(0x7F7FFFFF [Rational(340282346638528859811704183484516925440), 340282346638528859811704183484516925440.000000])

(declare-const y Float32)
(assert (= y ((_ to_fp 8 24) #x0039227E)))
;; y should be Float32(0x0039227E [Rational(1872191, 356811923176489970264571492362373784095686656), 0.000000])

(declare-const result Float32)
(assert (= result (fp.mul RNA x y)))
(assert (not (= result (fp #b0 #b01111111 #b11001001000100111110111))))
(check-sat)
(exit)
